1000 100
488 253
468 206
115 131
460 151
80 304
160 121
492 138
377 497
331 456
325 411
396 406
358 112
361 13
338 134
234 123
465 433
26 498
461 58
335 290
326 78
170 45
315 424
8 155
2 12
198 291
498 356
95 466
103 183
114 461
223 92
414 137
204 85
185 465
60 22
483 311
128 394
336 185
251 213
176 474
422 221
310 16
382 437
426 78
271 324
32 405
397 237
224 391
193 10
38 146
118 435
388 276
20 421
220 286
359 266
444 16
193 308
276 386
370 199
352 482
94 420
307 463
109 16
415 461
160 158
401 446
427 90
79 315
315 451
448 129
346 491
161 98
166 312
268 150
165 175
422 227
97 18
90 174
440 3
34 404
460 158
137 128
88 198
425 267
273 100
339 129
49 12
462 219
282 482
394 177
338 81
251 155
77 264
264 202
457 372
57 2
268 459
399 11
265 53
421 190
24 75
